p cnf 68 248
-4 2 0
-4 3 0
-2 -3 4 0
-4 5 -6 0
4 -5 -6 0
-4 -5 6 0
4 5 6 0
1 -6 -7 0
-1 6 -7 0
1 6 7 0
-1 -6 7 0
-9 -2 0
-9 8 0
2 -8 9 0
-10 -1 0
-10 -9 0
1 9 10 0
-7 -10 -11 0
7 10 -11 0
-7 10 11 0
7 -10 11 0
-12 -8 0
-12 -1 0
8 1 12 0
-11 12 -13 0
11 -12 -13 0
-11 -12 13 0
11 12 13 0
-14 15 0
14 15 0
-13 -15 -16 0
13 15 -16 0
-13 15 16 0
13 -15 16 0
-19 -17 0
-19 18 0
17 -18 19 0
5 19 -20 0
-5 -19 -20 0
5 -19 20 0
-5 19 20 0
3 -20 -21 0
-3 20 -21 0
3 20 21 0
-3 -20 21 0
-2 -1 -22 0
2 1 -22 0
-2 1 22 0
2 -1 22 0
-23 -21 0
-23 -22 0
21 22 23 0
24 -19 0
24 -8 0
19 8 -24 0
25 -23 0
25 -24 0
23 24 -25 0
-26 -1 0
-26 19 0
1 -19 26 0
27 -25 0
27 -26 0
25 26 -27 0
-20 28 -29 0
20 -28 -29 0
-20 -28 29 0
20 28 29 0
-30 -27 0
-30 -29 0
27 29 30 0
31 -2 0
31 5 0
2 -5 -31 0
32 -21 0
32 31 0
21 -31 -32 0
-33 -5 0
-33 5 0
34 -33 0
34 6 0
33 -6 -34 0
34 20 -35 0
-34 -20 -35 0
34 -20 35 0
-34 20 35 0
-36 -32 0
-36 -35 0
32 35 36 0
-37 2 0
-37 24 0
-2 -24 37 0
37 14 -38 0
-37 -14 -38 0
37 -14 38 0
-37 14 38 0
36 38 -39 0
-36 -38 -39 0
36 -38 39 0
-36 38 39 0
-40 -30 0
-40 39 0
30 -39 40 0
41 16 0
41 -40 0
-16 40 -41 0
-43 9 0
-43 -7 0
-9 7 43 0
-44 42 0
-44 43 0
-42 -43 44 0
45 8 0
45 34 0
-8 -34 -45 0
46 33 0
46 -4 0
-33 4 -46 0
1 -2 -47 0
-1 2 -47 0
1 2 47 0
-1 -2 47 0
48 -46 0
48 47 0
46 -47 -48 0
49 -45 0
49 48 0
45 -48 -49 0
-50 14 0
-50 9 0
-14 -9 50 0
51 24 0
51 6 0
-24 -6 -51 0
50 51 -52 0
-50 -51 -52 0
50 -51 52 0
-50 51 52 0
-33 -18 -53 0
33 18 -53 0
-33 18 53 0
33 -18 53 0
54 52 0
54 -53 0
-52 53 -54 0
-55 49 0
-55 54 0
-49 -54 55 0
56 44 0
56 -55 0
-44 55 -56 0
57 -41 0
57 -56 0
41 56 -57 0
-58 -33 0
-58 8 0
33 -8 58 0
59 3 0
59 9 0
-3 -9 -59 0
-58 59 -60 0
58 -59 -60 0
-58 -59 60 0
58 59 60 0
-61 -51 0
-61 42 0
51 -42 61 0
18 19 -62 0
-18 -19 -62 0
18 -19 62 0
-18 19 62 0
-63 -2 0
-63 2 0
-63 5 -64 0
63 -5 -64 0
-63 -5 64 0
63 5 64 0
65 62 0
65 64 0
-62 -64 -65 0
-66 -61 0
-66 -65 0
61 65 66 0
67 60 0
67 -66 0
-60 66 -67 0
57 -67 -68 0
-57 67 -68 0
57 67 68 0
-57 -67 68 0
45 -13 0
8 -25 11 2 -6 0
61 -47 -45 34 43 -32 0
47 60 40 7 0
-50 13 -41 20 45 64 0
29 -7 50 6 0
-20 -18 35 61 51 16 0
1 14 12 -39 0
-32 -24 -11 0
62 63 11 43 47 17 0
23 -27 -68 46 -12 9 0
-42 13 30 11 7 -32 0
39 -61 -11 0
-35 60 -21 1 0
-54 -52 -27 0
49 -18 -38 -30 0
-36 -30 -22 0
-52 -21 -10 -58 -25 47 0
47 7 -52 -23 0
-36 -11 10 27 0
-55 20 54 -31 -45 0
-49 -65 9 56 0
-46 -16 68 -63 0
-38 33 63 0
62 -17 -42 -25 -65 0
-40 8 -3 18 0
51 -45 13 2 46 56 0
-7 -23 33 -50 -38 24 0
-53 -13 -5 -28 -12 56 0
-5 65 -25 0
42 -36 -59 0
55 -37 -26 38 -41 62 0
62 40 0
-37 -31 0
-55 -33 -12 42 -49 19 0
-9 -61 0
-29 -8 30 -19 68 0
45 -59 -2 -60 -30 -14 0
-48 -37 -10 11 -28 0
2 -8 32 -50 -44 14 0
-64 40 -48 1 62 0
52 -64 4 61 -27 -56 0
12 25 56 53 0
-36 -35 -22 20 15 53 0
24 66 0
41 25 -31 9 43 0
13 25 56 52 0
-7 15 47 0
-5 59 -8 32 7 0
-29 60 21 -30 53 0
14 -27 40 55 -46 0
48 -30 0
50 -63 0
3 -67 30 -55 0
14 28 15 0
-22 -33 6 63 0
62 26 -36 63 0
68 0
